RAW/D/fspd/SCA8-0.vrpspd_seed-3.out
961.4935	0.886	26.125
