RAW/D/fspd/SCA8-0.vrpspd_seed-3.sol
Route #1: 33 21 6
Route #2: 3 41 2 40
Route #3: 26 28 43
Route #4: 19 49 42 47 5 11 50 1
Route #5: 29 48 34 13
Route #6: 7 45 23 31 46 18
Route #7: 20 44 16 24 38 22 35
Route #8: 37 32 15 25 10 36
Route #9: 8 27 17 12 4 9 39 14 30
Cost 9614935.000000